10	5
0	1	1
1	2	7	10
2	2	4	9
3	1	6
4	1	3
5	1	2
6	1	8
7	1	5
8	1	11
9	1	11
10	1	11
11	0
0	0	0	0	0	0	0
1	8	3	3	5	3	5
2	5	0	0	0	5	0
3	1	5	4	1	1	5
4	5	2	0	0	4	2
5	8	0	3	1	0	3
6	5	5	2	3	3	4
7	9	0	0	1	3	5
8	9	1	3	1	4	2
9	3	5	2	2	4	3
10	10	0	3	5	5	0
11	0	0	0	0	0	0
5	5	5	5	5
